p cnf 640
219
-7 1
-7 2
-1 -2 7
-8 2
-8 -7
-2 7 8
-9 -2
-9 7
2 -7 9
-10 -8
-10 -9
8 9 10
-11 2
-11 7
-2 -7 11
-12 1
-12 -10
-1 10 12
-13 1
-13 11
-1 -11 13
-14 -10
-14 11
10 -11 14
-15 -12
-15 13
12 -13 15
-16 12
-16 -13
-12 13 16
-17 -15
-17 -16
15 16 17
-18 12
-18 13
-12 -13 18
-19 -10
-19 -18
10 18 19
-20 10
-20 18
-10 -18 20
-21 -19
-21 -20
19 20 21
-22 -10
-22 18
10 -18 22
-23 14
-23 -22
-14 22 23
-24 -14
-24 22
14 -22 24
-25 -23
-25 -24
23 24 25
-26 14
-26 22
-14 -22 26
-27 -13
-27 -17
13 17 27
-28 13
-28 17
-13 -17 28
-29 -27
-29 -28
27 28 29
-30 13
-30 -17
-13 17 30
-31 -21
-31 -30
21 30 31
-32 21
-32 30
-21 -30 32
-33 -31
-33 -32
31 32 33
-34 -21
-34 30
21 -30 34
-35 -14
-35 -25
14 25 35
-36 14
-36 25
-14 -25 36
-37 -35
-37 -36
35 36 37
-38 14
-38 -25
-14 25 38
-39 -34
-39 -37
34 37 39
-40 34
-40 37
-34 -37 40
-41 -39
-41 -40
39 40 41
-42 34
-42 -37
-34 37 42
-43 -38
-43 -42
38 42 43
-44 -11
-44 26
11 -26 44
-45 11
-45 -26
-11 26 45
-46 -44
-46 -45
44 45 46
-47 11
-47 26
-11 -26 47
-48 43
-48 -46
-43 46 48
-49 -43
-49 46
43 -46 49
-50 -48
-50 -49
48 49 50
-51 -43
-51 -46
43 46 51
-52 -47
-52 -51
47 51 52
-53 3
-53 4
-3 -4 53
-54 4
-54 -53
-4 53 54
-55 -4
-55 53
4 -53 55
-56 -54
-56 -55
54 55 56
-57 4
-57 53
-4 -53 57
-58 3
-58 -56
-3 56 58
-59 3
-59 57
-3 -57 59
-60 -56
-60 57
56 -57 60
-61 -58
-61 59
58 -59 61
-62 58
-62 -59
-58 59 62
-63 -61
-63 -62
61 62 63
-64 58
-64 59
-58 -59 64
-65 -56
-65 -64
56 64 65
-66 56
-66 64
-56 -64 66
-67 -65
-67 -66
65 66 67
-68 -56
-68 64
56 -64 68
-69 60
-69 -68
-60 68 69
-70 -60
-70 68
60 -68 70
-71 -69
-71 -70
69 70 71
-72 60
-72 68
-60 -68 72
-73 -59
-73 -63
59 63 73
-74 59
-74 63
-59 -63 74
-75 -73
-75 -74
73 74 75
-76 59
-76 -63
-59 63 76
-77 -67
-77 -76
67 76 77
-78 67
-78 76
-67 -76 78
-79 -77
-79 -78
77 78 79
-80 -67
-80 76
67 -76 80
-81 -60
-81 -71
60 71 81
-82 60
-82 71
-60 -71 82
-83 -81
-83 -82
81 82 83
-84 60
-84 -71
-60 71 84
-85 -80
-85 -83
80 83 85
-86 80
-86 83
-80 -83 86
-87 -85
-87 -86
85 86 87
-88 80
-88 -83
-80 83 88
-89 -84
-89 -88
84 88 89
-90 -57
-90 72
57 -72 90
-91 57
-91 -72
-57 72 91
-92 -90
-92 -91
90 91 92
-93 57
-93 72
-57 -72 93
-94 89
-94 -92
-89 92 94
-95 -89
-95 92
89 -92 95
-96 -94
-96 -95
94 95 96
-97 -89
-97 -92
89 92 97
-98 -93
-98 -97
93 97 98
-99 5
-99 6
-5 -6 99
-100 6
-100 -99
-6 99 100
-101 -6
-101 99
6 -99 101
-102 -100
-102 -101
100 101 102
-103 6
-103 99
-6 -99 103
-104 5
-104 -102
-5 102 104
-105 5
-105 103
-5 -103 105
-106 -102
-106 103
102 -103 106
-107 -104
-107 105
104 -105 107
-108 104
-108 -105
-104 105 108
-109 -107
-109 -108
107 108 109
-110 104
-110 105
-104 -105 110
-111 -102
-111 -110
102 110 111
-112 102
-112 110
-102 -110 112
-113 -111
-113 -112
111 112 113
-114 -102
-114 110
102 -110 114
-115 106
-115 -114
-106 114 115
-116 -106
-116 114
106 -114 116
-117 -115
-117 -116
115 116 117
-118 106
-118 114
-106 -114 118
-119 -105
-119 -109
105 109 119
-120 105
-120 109
-105 -109 120
-121 -119
-121 -120
119 120 121
-122 105
-122 -109
-105 109 122
-123 -113
-123 -122
113 122 123
-124 113
-124 122
-113 -122 124
-125 -123
-125 -124
123 124 125
-126 -113
-126 122
113 -122 126
-127 -106
-127 -117
106 117 127
-128 106
-128 117
-106 -117 128
-129 -127
-129 -128
127 128 129
-130 106
-130 -117
-106 117 130
-131 -126
-131 -129
126 129 131
-132 126
-132 129
-126 -129 132
-133 -131
-133 -132
131 132 133
-134 126
-134 -129
-126 129 134
-135 -130
-135 -134
130 134 135
-136 -103
-136 118
103 -118 136
-137 103
-137 -118
-103 118 137
-138 -136
-138 -137
136 137 138
-139 103
-139 118
-103 -118 139
-140 135
-140 -138
-135 138 140
-141 -135
-141 138
135 -138 141
-142 -140
-142 -141
140 141 142
-143 -135
-143 -138
135 138 143
-144 -139
-144 -143
139 143 144
-145 1
-145 -3
-1 3 145
-146 -1
-146 3
1 -3 146
-147 -145
-147 -146
145 146 147
-148 1
-148 3
-1 -3 148
-149 -29
-149 75
29 -75 149
-150 29
-150 -75
-29 75 150
-151 -149
-151 -150
149 150 151
-152 -29
-152 -75
29 75 152
-153 -33
-153 79
33 -79 153
-154 33
-154 -79
-33 79 154
-155 -153
-155 -154
153 154 155
-156 -33
-156 -79
33 79 156
-157 -152
-157 -155
152 155 157
-158 152
-158 155
-152 -155 158
-159 -157
-159 -158
157 158 159
-160 152
-160 -155
-152 155 160
-161 -156
-161 -160
156 160 161
-162 -41
-162 87
41 -87 162
-163 41
-163 -87
-41 87 163
-164 -162
-164 -163
162 163 164
-165 -41
-165 -87
41 87 165
-166 161
-166 -164
-161 164 166
-167 -161
-167 164
161 -164 167
-168 -166
-168 -167
166 167 168
-169 -161
-169 -164
161 164 169
-170 -165
-170 -169
165 169 170
-171 -50
-171 96
50 -96 171
-172 50
-172 -96
-50 96 172
-173 -171
-173 -172
171 172 173
-174 -50
-174 -96
50 96 174
-175 170
-175 -173
-170 173 175
-176 -170
-176 173
170 -173 176
-177 -175
-177 -176
175 176 177
-178 -170
-178 -173
170 173 178
-179 -174
-179 -178
174 178 179
-180 -52
-180 98
52 -98 180
-181 52
-181 -98
-52 98 181
-182 -180
-182 -181
180 181 182
-183 -52
-183 -98
52 98 183
-184 179
-184 -182
-179 182 184
-185 -179
-185 182
179 -182 185
-186 -184
-186 -185
184 185 186
-187 -179
-187 -182
179 182 187
-188 -183
-188 -187
183 187 188
-189 5
-189 -147
-5 147 189
-190 -5
-190 147
5 -147 190
-191 -189
-191 -190
189 190 191
-192 -121
-192 -151
121 151 192
-193 121
-193 151
-121 -151 193
-194 -192
-194 -193
192 193 194
-195 -125
-195 -159
125 159 195
-196 125
-196 159
-125 -159 196
-197 -195
-197 -196
195 196 197
-198 -133
-198 -168
133 168 198
-199 133
-199 168
-133 -168 199
-200 -198
-200 -199
198 199 200
-201 -142
-201 -177
142 177 201
-202 142
-202 177
-142 -177 202
-203 -201
-203 -202
201 202 203
-204 -144
-204 -186
144 186 204
-205 144
-205 186
-144 -186 205
-206 -204
-206 -205
204 205 206
-207 -148
-207 -191
148 191 207
-208 -197
-208 -200
197 200 208
-209 -203
-209 -206
203 206 209
-210 -194
-210 207
194 -207 210
-211 208
-211 209
-208 -209 211
-212 210
-212 211
-210 -211 212
-213 188
-213 212
-188 -212 213
-214 -1
-214 -2
1 2 214
-215 -3
-215 -4
3 4 215
-216 -5
-216 -6
5 6 216
-217 -214
-217 -215
214 215 217
-218 -216
-218 217
216 -217 218
-219 213
-219 218
-213 -218 219
